40
1 0 96
2 0 18
2 1 309
3 0 231
3 1 160
3 2 254
4 1 150
4 2 105
4 3 86
5 0 140
5 1 179
5 2 294
5 3 121
5 4 44
6 0 151
6 2 279
6 3 87
6 4 92
6 5 86
7 0 209
7 1 193
7 2 286
7 3 49
7 4 143
7 5 269
8 0 124
8 2 205
8 3 290
8 4 50
8 5 238
8 6 315
9 0 264
9 1 122
9 2 28
9 3 23
9 4 123
9 5 157
9 6 184
9 7 82
9 8 149
10 1 253
10 2 183
10 3 51
10 4 141
10 5 105
10 6 52
10 7 121
10 8 77
10 9 231
11 1 291
11 2 277
11 3 66
11 4 231
11 5 267
11 6 230
11 7 287
11 8 190
11 9 173
11 10 268
12 1 222
12 2 201
12 4 200
12 5 293
12 6 121
12 7 316
12 8 270
12 9 258
12 10 152
12 11 229
13 1 276
13 2 115
13 3 54
13 4 298
13 5 26
13 7 159
13 8 144
13 9 209
13 10 60
13 11 39
13 12 263
14 0 248
14 1 34
14 2 195
14 3 183
14 4 102
14 5 299
14 6 303
14 7 27
14 8 149
14 9 292
14 10 74
14 11 136
14 13 117
15 0 29
15 1 133
15 2 179
15 4 48
15 5 120
15 6 59
15 7 235
15 8 15
15 9 178
15 10 6
15 11 100
15 13 229
15 14 37
16 0 232
16 1 253
16 2 94
16 3 40
16 4 147
16 5 159
16 6 146
16 7 176
16 8 154
16 9 156
16 10 16
16 11 23
16 12 135
16 13 291
16 15 167
17 1 39
17 2 26
17 3 33
17 4 291
17 5 249
17 6 169
17 7 143
17 8 52
17 9 137
17 10 4
17 11 113
17 13 153
17 14 77
17 15 78
17 16 123
18 0 120
18 2 10
18 3 142
18 4 286
18 5 203
18 6 310
18 7 221
18 8 208
18 9 88
18 10 307
18 11 82
18 12 190
18 13 174
18 14 24
18 15 163
18 16 197
18 17 161
19 0 196
19 1 273
19 2 138
19 4 291
19 5 271
19 6 139
19 7 257
19 8 174
19 9 63
19 10 137
19 11 319
19 12 278
19 13 30
19 14 135
19 15 48
19 16 201
19 17 21
19 18 48
20 0 275
20 1 155
20 2 46
20 3 316
20 4 60
20 6 285
20 7 87
20 8 105
20 9 147
20 10 106
20 11 208
20 13 76
20 14 37
20 15 50
20 16 187
20 17 294
20 18 219
20 19 39
21 0 37
21 1 316
21 2 267
21 3 28
21 4 124
21 5 23
21 6 261
21 7 104
21 8 67
21 9 162
21 10 313
21 11 83
21 12 36
21 13 209
21 15 275
21 16 82
21 17 318
21 18 126
21 19 309
21 20 162
22 0 304
22 1 75
22 2 135
22 3 257
22 4 202
22 5 71
22 6 180
22 7 265
22 8 58
22 9 11
22 10 314
22 11 25
22 12 153
22 13 14
22 14 65
22 15 55
22 16 78
22 18 167
22 19 159
22 20 243
22 21 5
23 0 246
23 1 278
23 2 222
23 3 292
23 4 305
23 5 93
23 6 203
23 7 148
23 8 88
23 9 180
23 10 28
23 11 171
23 12 84
23 13 101
23 14 178
23 15 15
23 16 53
23 18 28
23 19 102
23 20 17
23 21 61
23 22 27
24 0 88
24 2 31
24 3 278
24 4 149
24 5 310
24 6 292
24 7 206
24 8 80
24 9 30
24 10 255
24 11 315
24 12 66
24 13 18
24 14 265
24 15 155
24 16 217
24 17 54
24 19 93
24 20 137
24 21 4
24 22 238
24 23 175
25 0 104
25 1 127
25 2 224
25 3 308
25 4 307
25 5 38
25 6 285
25 7 90
25 8 35
25 9 212
25 10 94
25 12 264
25 13 4
25 14 104
25 15 16
25 16 139
25 17 225
25 18 44
25 19 64
25 20 268
25 21 198
25 22 202
25 23 148
25 24 175
26 0 31
26 1 203
26 3 208
26 4 103
26 5 314
26 6 307
26 8 290
26 9 261
26 10 306
26 11 90
26 12 307
26 13 197
26 14 308
26 15 265
26 16 46
26 17 256
26 18 165
26 19 104
26 20 96
26 21 83
26 22 199
26 23 252
26 24 107
26 25 202
27 0 222
27 2 89
27 4 76
27 5 154
27 6 4
27 7 282
27 9 241
27 10 4
27 11 56
27 12 208
27 13 225
27 14 256
27 15 297
27 16 156
27 17 155
27 18 238
27 19 206
27 20 116
27 21 60
27 22 235
27 23 265
27 24 278
27 25 60
27 26 54
28 1 228
28 2 8
28 3 265
28 4 139
28 5 241
28 6 222
28 7 193
28 8 118
28 9 136
28 10 106
28 11 284
28 12 239
28 13 41
28 15 30
28 16 184
28 17 232
28 18 209
28 19 150
28 20 41
28 23 225
28 24 248
28 25 289
28 26 194
28 27 80
29 0 114
29 1 214
29 2 302
29 3 124
29 4 9
29 5 313
29 7 98
29 9 276
29 10 195
29 11 201
29 12 130
29 13 161
29 14 78
29 15 150
29 16 125
29 17 132
29 18 220
29 19 130
29 20 302
29 21 241
29 22 10
29 23 100
29 24 108
29 25 258
29 26 184
29 27 101
29 28 12
30 0 40
30 1 137
30 2 168
30 3 96
30 4 261
30 5 27
30 6 22
30 7 101
30 8 214
30 9 139
30 10 244
30 11 9
30 12 6
30 13 301
30 14 316
30 15 297
30 16 175
30 17 317
30 18 161
30 19 164
30 21 211
30 22 116
30 23 8
30 24 248
30 25 242
30 26 37
30 27 258
30 29 127
31 0 306
31 1 183
31 2 167
31 3 257
31 4 20
31 5 143
31 6 313
31 7 85
31 8 112
31 9 290
31 10 268
31 11 76
31 13 243
31 14 47
31 15 264
31 16 318
31 17 128
31 18 220
31 19 78
31 20 224
31 21 201
31 23 146
31 24 117
31 25 282
31 26 73
31 27 213
31 29 317
31 30 137
32 0 163
32 1 40
32 3 218
32 4 232
32 5 27
32 6 77
32 7 22
32 9 233
32 10 301
32 12 166
32 13 110
32 14 124
32 15 5
32 17 101
32 18 149
32 19 24
32 20 44
32 21 224
32 22 216
32 23 106
32 24 307
32 25 75
32 26 200
32 27 25
32 28 20
32 29 223
32 30 3
32 31 192
33 0 267
33 1 195
33 2 89
33 4 72
33 5 48
33 6 44
33 7 305
33 8 305
33 9 201
33 10 105
33 12 122
33 13 227
33 14 44
33 15 29
33 16 292
33 17 197
33 18 310
33 19 137
33 21 320
33 22 12
33 23 111
33 24 112
33 25 263
33 26 141
33 28 25
33 29 302
33 30 6
33 31 111
33 32 191
34 0 170
34 1 167
34 2 74
34 3 133
34 4 105
34 5 17
34 6 35
34 7 263
34 8 73
34 9 197
34 10 20
34 12 215
34 13 301
34 14 221
34 15 285
34 16 317
34 17 144
34 19 112
34 20 253
34 21 217
34 22 25
34 23 174
34 24 235
34 25 202
34 26 21
34 27 122
34 28 153
34 29 85
34 30 105
34 31 304
34 32 203
34 33 144
35 0 22
35 1 201
35 2 138
35 3 209
35 4 316
35 5 172
35 6 27
35 7 169
35 8 288
35 9 278
35 10 198
35 11 151
35 12 16
35 14 266
35 15 259
35 16 170
35 17 231
35 18 61
35 19 250
35 20 58
35 21 269
35 22 261
35 23 233
35 24 235
35 25 304
35 26 315
35 27 214
35 28 261
35 29 153
35 31 254
35 33 266
35 34 91
36 0 15
36 1 278
36 3 225
36 4 239
36 5 265
36 6 6
36 8 257
36 9 243
36 10 145
36 11 239
36 12 101
36 13 270
36 14 2
36 15 156
36 16 128
36 17 191
36 18 159
36 19 245
36 20 100
36 21 95
36 22 163
36 23 31
36 25 48
36 27 8
36 28 211
36 29 66
36 30 127
36 31 50
36 32 164
36 33 202
36 34 148
37 1 71
37 2 60
37 3 25
37 4 162
37 6 258
37 7 26
37 8 30
37 9 298
37 11 157
37 12 99
37 13 112
37 14 289
37 15 240
37 16 202
37 17 299
37 19 281
37 20 265
37 21 55
37 22 95
37 23 3
37 24 142
37 25 199
37 26 278
37 27 245
37 28 131
37 29 233
37 30 53
37 31 298
37 32 2
37 33 297
37 34 181
37 35 87
37 36 226
38 0 85
38 1 185
38 2 200
38 3 204
38 4 281
38 5 175
38 6 213
38 7 123
38 8 83
38 9 124
38 11 147
38 12 304
38 13 176
38 14 194
38 15 204
38 16 219
38 17 127
38 18 61
38 19 205
38 20 217
38 21 270
38 22 233
38 24 62
38 25 285
38 26 82
38 27 18
38 29 231
38 30 234
38 32 294
38 33 135
38 34 222
38 35 164
38 36 200
38 37 129
39 0 253
39 1 226
39 2 259
39 3 226
39 4 269
39 5 6
39 6 106
39 7 249
39 9 301
39 10 258
39 11 293
39 14 165
39 15 116
39 16 104
39 17 38
39 19 108
39 20 296
39 21 114
39 22 86
39 23 294
39 24 75
39 25 264
39 26 138
39 27 229
39 28 74
39 29 49
39 30 124
39 31 216
39 32 106
39 33 48
39 34 100
39 35 77
39 36 16
39 37 90
